Assignment1/outputFileName.cnf
p cnf 50 250
1 2 0
-1 -2 0
3 4 0
-3 -4 0
5 6 0
-5 -6 0
7 8 0
-7 -8 0
9 10 0
-9 -10 0
11 12 0
-11 -12 0
13 14 0
-13 -14 0
15 16 0
-15 -16 0
17 18 0
-17 -18 0
19 20 0
-19 -20 0
21 22 0
-21 -22 0
23 24 0
-23 -24 0
25 26 0
-25 -26 0
27 28 0
-27 -28 0
29 30 0
-29 -30 0
31 32 0
-31 -32 0
33 34 0
-33 -34 0
35 36 0
-35 -36 0
37 38 0
-37 -38 0
39 40 0
-39 -40 0
41 42 0
-41 -42 0
43 44 0
-43 -44 0
45 46 0
-45 -46 0
47 48 0
-47 -48 0
49 50 0
-49 -50 0
-1 -11  -3 -13 0
-2 -12  -4 -14 0
-1 -11  -5 -15 0
-2 -12  -6 -16 0
-1 -11  -7 -17 0
-2 -12  -8 -18 0
-1 -11  -9 -19 0
-2 -12  -10 -20 0
-1 -21  -3 -23 0
-2 -22  -4 -24 0
-1 -21  -5 -25 0
-2 -22  -6 -26 0
-1 -21  -7 -27 0
-2 -22  -8 -28 0
-1 -21  -9 -29 0
-2 -22  -10 -30 0
-1 -31  -3 -33 0
-2 -32  -4 -34 0
-1 -31  -5 -35 0
-2 -32  -6 -36 0
-1 -31  -7 -37 0
-2 -32  -8 -38 0
-1 -31  -9 -39 0
-2 -32  -10 -40 0
-1 -41  -3 -43 0
-2 -42  -4 -44 0
-1 -41  -5 -45 0
-2 -42  -6 -46 0
-1 -41  -7 -47 0
-2 -42  -8 -48 0
-1 -41  -9 -49 0
-2 -42  -10 -50 0
-3 -13  -5 -15 0
-4 -14  -6 -16 0
-3 -13  -7 -17 0
-4 -14  -8 -18 0
-3 -13  -9 -19 0
-4 -14  -10 -20 0
-3 -23  -5 -25 0
-4 -24  -6 -26 0
-3 -23  -7 -27 0
-4 -24  -8 -28 0
-3 -23  -9 -29 0
-4 -24  -10 -30 0
-3 -33  -5 -35 0
-4 -34  -6 -36 0
-3 -33  -7 -37 0
-4 -34  -8 -38 0
-3 -33  -9 -39 0
-4 -34  -10 -40 0
-3 -43  -5 -45 0
-4 -44  -6 -46 0
-3 -43  -7 -47 0
-4 -44  -8 -48 0
-3 -43  -9 -49 0
-4 -44  -10 -50 0
-5 -15  -7 -17 0
-6 -16  -8 -18 0
-5 -15  -9 -19 0
-6 -16  -10 -20 0
-5 -25  -7 -27 0
-6 -26  -8 -28 0
-5 -25  -9 -29 0
-6 -26  -10 -30 0
-5 -35  -7 -37 0
-6 -36  -8 -38 0
-5 -35  -9 -39 0
-6 -36  -10 -40 0
-5 -45  -7 -47 0
-6 -46  -8 -48 0
-5 -45  -9 -49 0
-6 -46  -10 -50 0
-7 -17  -9 -19 0
-8 -18  -10 -20 0
-7 -27  -9 -29 0
-8 -28  -10 -30 0
-7 -37  -9 -39 0
-8 -38  -10 -40 0
-7 -47  -9 -49 0
-8 -48  -10 -50 0
-11 -21  -13 -23 0
-12 -22  -14 -24 0
-11 -21  -15 -25 0
-12 -22  -16 -26 0
-11 -21  -17 -27 0
-12 -22  -18 -28 0
-11 -21  -19 -29 0
-12 -22  -20 -30 0
-11 -31  -13 -33 0
-12 -32  -14 -34 0
-11 -31  -15 -35 0
-12 -32  -16 -36 0
-11 -31  -17 -37 0
-12 -32  -18 -38 0
-11 -31  -19 -39 0
-12 -32  -20 -40 0
-11 -41  -13 -43 0
-12 -42  -14 -44 0
-11 -41  -15 -45 0
-12 -42  -16 -46 0
-11 -41  -17 -47 0
-12 -42  -18 -48 0
-11 -41  -19 -49 0
-12 -42  -20 -50 0
-13 -23  -15 -25 0
-14 -24  -16 -26 0
-13 -23  -17 -27 0
-14 -24  -18 -28 0
-13 -23  -19 -29 0
-14 -24  -20 -30 0
-13 -33  -15 -35 0
-14 -34  -16 -36 0
-13 -33  -17 -37 0
-14 -34  -18 -38 0
-13 -33  -19 -39 0
-14 -34  -20 -40 0
-13 -43  -15 -45 0
-14 -44  -16 -46 0
-13 -43  -17 -47 0
-14 -44  -18 -48 0
-13 -43  -19 -49 0
-14 -44  -20 -50 0
-15 -25  -17 -27 0
-16 -26  -18 -28 0
-15 -25  -19 -29 0
-16 -26  -20 -30 0
-15 -35  -17 -37 0
-16 -36  -18 -38 0
-15 -35  -19 -39 0
-16 -36  -20 -40 0
-15 -45  -17 -47 0
-16 -46  -18 -48 0
-15 -45  -19 -49 0
-16 -46  -20 -50 0
-17 -27  -19 -29 0
-18 -28  -20 -30 0
-17 -37  -19 -39 0
-18 -38  -20 -40 0
-17 -47  -19 -49 0
-18 -48  -20 -50 0
-21 -31  -23 -33 0
-22 -32  -24 -34 0
-21 -31  -25 -35 0
-22 -32  -26 -36 0
-21 -31  -27 -37 0
-22 -32  -28 -38 0
-21 -31  -29 -39 0
-22 -32  -30 -40 0
-21 -41  -23 -43 0
-22 -42  -24 -44 0
-21 -41  -25 -45 0
-22 -42  -26 -46 0
-21 -41  -27 -47 0
-22 -42  -28 -48 0
-21 -41  -29 -49 0
-22 -42  -30 -50 0
-23 -33  -25 -35 0
-24 -34  -26 -36 0
-23 -33  -27 -37 0
-24 -34  -28 -38 0
-23 -33  -29 -39 0
-24 -34  -30 -40 0
-23 -43  -25 -45 0
-24 -44  -26 -46 0
-23 -43  -27 -47 0
-24 -44  -28 -48 0
-23 -43  -29 -49 0
-24 -44  -30 -50 0
-25 -35  -27 -37 0
-26 -36  -28 -38 0
-25 -35  -29 -39 0
-26 -36  -30 -40 0
-25 -45  -27 -47 0
-26 -46  -28 -48 0
-25 -45  -29 -49 0
-26 -46  -30 -50 0
-27 -37  -29 -39 0
-28 -38  -30 -40 0
-27 -47  -29 -49 0
-28 -48  -30 -50 0
-31 -41  -33 -43 0
-32 -42  -34 -44 0
-31 -41  -35 -45 0
-32 -42  -36 -46 0
-31 -41  -37 -47 0
-32 -42  -38 -48 0
-31 -41  -39 -49 0
-32 -42  -40 -50 0
-33 -43  -35 -45 0
-34 -44  -36 -46 0
-33 -43  -37 -47 0
-34 -44  -38 -48 0
-33 -43  -39 -49 0
-34 -44  -40 -50 0
-35 -45  -37 -47 0
-36 -46  -38 -48 0
-35 -45  -39 -49 0
-36 -46  -40 -50 0
-37 -47  -39 -49 0
-38 -48  -40 -50 0